(declare-sort Loc 0)
(declare-const l0 Loc)
(declare-const l1 Loc)
(declare-const l2 Loc)
(declare-const l3 Loc)
(declare-const l4 Loc)
(declare-const l5 Loc)
(declare-const l6 Loc)
(declare-const l7 Loc)
(declare-const l8 Loc)
(declare-const l9 Loc)
(declare-const l10 Loc)
(declare-const l11 Loc)
(declare-const l12 Loc)
(declare-const l13 Loc)
(declare-const l14 Loc)
(declare-const l15 Loc)
(declare-const l16 Loc)
(declare-const l17 Loc)
(declare-const l18 Loc)
(declare-const l19 Loc)
(assert (distinct l0 l1 l2 l3 l4 l5 l6 l7 l8 l9 l10 l11 l12 l13 l14 l15 l16 l17 l18 l19))

(define-fun cfg_init ( (pc Loc) (src Loc) (rel Bool) ) Bool
  (and (= pc src) rel))

(define-fun cfg_trans2 ( (pc Loc) (src Loc)
                         (pc1 Loc) (dst Loc)
                         (rel Bool) ) Bool
  (and (= pc src) (= pc1 dst) rel))

(define-fun cfg_trans3 ( (pc Loc) (exit Loc)
                         (pc1 Loc) (call Loc)
                         (pc2 Loc) (return Loc)
                         (rel Bool) ) Bool
  (and (= pc exit) (= pc1 call) (= pc2 return) rel))

(define-fun init_main ( (pc^0 Loc) (__const_100^0 Int) (__len21^0 Int) (ret_my_malloc10^0 Int) (ret_my_malloc14^0 Int) (retval^0 Int) (size11^0 Int) (size15^0 Int) (size17^0 Int) (size7^0 Int) (tmp13^0 Int) (tmp22^0 Int) (tmp9^0 Int) (tmp^0 Int) (tmp___0^0 Int) (tmp___1^0 Int) ) Bool
  (cfg_init pc^0 l19 true))

(define-fun next_main (
                 (pc^0 Loc) (__const_100^0 Int) (__len21^0 Int) (ret_my_malloc10^0 Int) (ret_my_malloc14^0 Int) (retval^0 Int) (size11^0 Int) (size15^0 Int) (size17^0 Int) (size7^0 Int) (tmp13^0 Int) (tmp22^0 Int) (tmp9^0 Int) (tmp^0 Int) (tmp___0^0 Int) (tmp___1^0 Int)
                 (pc^post Loc) (__const_100^post Int) (__len21^post Int) (ret_my_malloc10^post Int) (ret_my_malloc14^post Int) (retval^post Int) (size11^post Int) (size15^post Int) (size17^post Int) (size7^post Int) (tmp13^post Int) (tmp22^post Int) (tmp9^post Int) (tmp^post Int) (tmp___0^post Int) (tmp___1^post Int)
             ) Bool
  (or
    (cfg_trans2 pc^0 l0 pc^post l1 (and (and (and (and (and (and (and (and (and (and (and (and (and (and (= ret_my_malloc10^post 0) (= __const_100^0 __const_100^post)) (= __len21^0 __len21^post)) (= ret_my_malloc14^0 ret_my_malloc14^post)) (= retval^0 retval^post)) (= size11^0 size11^post)) (= size15^0 size15^post)) (= size17^0 size17^post)) (= size7^0 size7^post)) (= tmp^0 tmp^post)) (= tmp13^0 tmp13^post)) (= tmp22^0 tmp22^post)) (= tmp9^0 tmp9^post)) (= tmp___0^0 tmp___0^post)) (= tmp___1^0 tmp___1^post)))
    (cfg_trans2 pc^0 l0 pc^post l1 (and (and (and (and (and (and (and (and (and (and (and (and (and (and (= ret_my_malloc10^post 1) (= __const_100^0 __const_100^post)) (= __len21^0 __len21^post)) (= ret_my_malloc14^0 ret_my_malloc14^post)) (= retval^0 retval^post)) (= size11^0 size11^post)) (= size15^0 size15^post)) (= size17^0 size17^post)) (= size7^0 size7^post)) (= tmp^0 tmp^post)) (= tmp13^0 tmp13^post)) (= tmp22^0 tmp22^post)) (= tmp9^0 tmp9^post)) (= tmp___0^0 tmp___0^post)) (= tmp___1^0 tmp___1^post)))
    (cfg_trans2 pc^0 l2 pc^post l3 (and (and (and (and (and (and (and (and (and (and (and (and (and (and (= __const_100^0 __const_100^post) (= __len21^0 __len21^post)) (= ret_my_malloc10^0 ret_my_malloc10^post)) (= ret_my_malloc14^0 ret_my_malloc14^post)) (= retval^0 retval^post)) (= size11^0 size11^post)) (= size15^0 size15^post)) (= size17^0 size17^post)) (= size7^0 size7^post)) (= tmp^0 tmp^post)) (= tmp13^0 tmp13^post)) (= tmp22^0 tmp22^post)) (= tmp9^0 tmp9^post)) (= tmp___0^0 tmp___0^post)) (= tmp___1^0 tmp___1^post)))
    (cfg_trans2 pc^0 l4 pc^post l2 (and (and (and (and (and (and (and (and (and (and (and (and (and (and (= tmp___0^post tmp___0^post) (= __const_100^0 __const_100^post)) (= __len21^0 __len21^post)) (= ret_my_malloc10^0 ret_my_malloc10^post)) (= ret_my_malloc14^0 ret_my_malloc14^post)) (= retval^0 retval^post)) (= size11^0 size11^post)) (= size15^0 size15^post)) (= size17^0 size17^post)) (= size7^0 size7^post)) (= tmp^0 tmp^post)) (= tmp13^0 tmp13^post)) (= tmp22^0 tmp22^post)) (= tmp9^0 tmp9^post)) (= tmp___1^0 tmp___1^post)))
    (cfg_trans2 pc^0 l5 pc^post l2 (and (and (and (and (and (and (and (and (and (and (and (and (and (and (and (and (<= (+ 0 tmp___1^0) -1) (<= -1 (+ 0 tmp___1^0))) (= __len21^post (+ 0 __const_100^0))) (= tmp22^post tmp22^post)) (= __const_100^0 __const_100^post)) (= ret_my_malloc10^0 ret_my_malloc10^post)) (= ret_my_malloc14^0 ret_my_malloc14^post)) (= retval^0 retval^post)) (= size11^0 size11^post)) (= size15^0 size15^post)) (= size17^0 size17^post)) (= size7^0 size7^post)) (= tmp^0 tmp^post)) (= tmp13^0 tmp13^post)) (= tmp9^0 tmp9^post)) (= tmp___0^0 tmp___0^post)) (= tmp___1^0 tmp___1^post)))
    (cfg_trans2 pc^0 l5 pc^post l4 (and (and (and (and (and (and (and (and (and (and (and (and (and (and (and (<= 0 (+ 0 tmp___1^0)) (= __const_100^0 __const_100^post)) (= __len21^0 __len21^post)) (= ret_my_malloc10^0 ret_my_malloc10^post)) (= ret_my_malloc14^0 ret_my_malloc14^post)) (= retval^0 retval^post)) (= size11^0 size11^post)) (= size15^0 size15^post)) (= size17^0 size17^post)) (= size7^0 size7^post)) (= tmp^0 tmp^post)) (= tmp13^0 tmp13^post)) (= tmp22^0 tmp22^post)) (= tmp9^0 tmp9^post)) (= tmp___0^0 tmp___0^post)) (= tmp___1^0 tmp___1^post)))
    (cfg_trans2 pc^0 l5 pc^post l4 (and (and (and (and (and (and (and (and (and (and (and (and (and (and (and (<= (+ 1 tmp___1^0) -1) (= __const_100^0 __const_100^post)) (= __len21^0 __len21^post)) (= ret_my_malloc10^0 ret_my_malloc10^post)) (= ret_my_malloc14^0 ret_my_malloc14^post)) (= retval^0 retval^post)) (= size11^0 size11^post)) (= size15^0 size15^post)) (= size17^0 size17^post)) (= size7^0 size7^post)) (= tmp^0 tmp^post)) (= tmp13^0 tmp13^post)) (= tmp22^0 tmp22^post)) (= tmp9^0 tmp9^post)) (= tmp___0^0 tmp___0^post)) (= tmp___1^0 tmp___1^post)))
    (cfg_trans2 pc^0 l6 pc^post l3 (and (and (and (and (and (and (and (and (and (and (and (and (and (and (= __const_100^0 __const_100^post) (= __len21^0 __len21^post)) (= ret_my_malloc10^0 ret_my_malloc10^post)) (= ret_my_malloc14^0 ret_my_malloc14^post)) (= retval^0 retval^post)) (= size11^0 size11^post)) (= size15^0 size15^post)) (= size17^0 size17^post)) (= size7^0 size7^post)) (= tmp^0 tmp^post)) (= tmp13^0 tmp13^post)) (= tmp22^0 tmp22^post)) (= tmp9^0 tmp9^post)) (= tmp___0^0 tmp___0^post)) (= tmp___1^0 tmp___1^post)))
    (cfg_trans2 pc^0 l7 pc^post l6 (and (and (and (and (and (and (and (and (and (and (and (and (and (and (= __const_100^0 __const_100^post) (= __len21^0 __len21^post)) (= ret_my_malloc10^0 ret_my_malloc10^post)) (= ret_my_malloc14^0 ret_my_malloc14^post)) (= retval^0 retval^post)) (= size11^0 size11^post)) (= size15^0 size15^post)) (= size17^0 size17^post)) (= size7^0 size7^post)) (= tmp^0 tmp^post)) (= tmp13^0 tmp13^post)) (= tmp22^0 tmp22^post)) (= tmp9^0 tmp9^post)) (= tmp___0^0 tmp___0^post)) (= tmp___1^0 tmp___1^post)))
    (cfg_trans2 pc^0 l8 pc^post l7 (and (and (and (and (and (and (and (and (and (and (and (and (and (and (= __const_100^0 __const_100^post) (= __len21^0 __len21^post)) (= ret_my_malloc10^0 ret_my_malloc10^post)) (= ret_my_malloc14^0 ret_my_malloc14^post)) (= retval^0 retval^post)) (= size11^0 size11^post)) (= size15^0 size15^post)) (= size17^0 size17^post)) (= size7^0 size7^post)) (= tmp^0 tmp^post)) (= tmp13^0 tmp13^post)) (= tmp22^0 tmp22^post)) (= tmp9^0 tmp9^post)) (= tmp___0^0 tmp___0^post)) (= tmp___1^0 tmp___1^post)))
    (cfg_trans2 pc^0 l8 pc^post l6 (and (and (and (and (and (and (and (and (and (and (and (and (and (and (= __const_100^0 __const_100^post) (= __len21^0 __len21^post)) (= ret_my_malloc10^0 ret_my_malloc10^post)) (= ret_my_malloc14^0 ret_my_malloc14^post)) (= retval^0 retval^post)) (= size11^0 size11^post)) (= size15^0 size15^post)) (= size17^0 size17^post)) (= size7^0 size7^post)) (= tmp^0 tmp^post)) (= tmp13^0 tmp13^post)) (= tmp22^0 tmp22^post)) (= tmp9^0 tmp9^post)) (= tmp___0^0 tmp___0^post)) (= tmp___1^0 tmp___1^post)))
    (cfg_trans2 pc^0 l8 pc^post l7 (and (and (and (and (and (and (and (and (and (and (and (and (and (and (= __const_100^0 __const_100^post) (= __len21^0 __len21^post)) (= ret_my_malloc10^0 ret_my_malloc10^post)) (= ret_my_malloc14^0 ret_my_malloc14^post)) (= retval^0 retval^post)) (= size11^0 size11^post)) (= size15^0 size15^post)) (= size17^0 size17^post)) (= size7^0 size7^post)) (= tmp^0 tmp^post)) (= tmp13^0 tmp13^post)) (= tmp22^0 tmp22^post)) (= tmp9^0 tmp9^post)) (= tmp___0^0 tmp___0^post)) (= tmp___1^0 tmp___1^post)))
    (cfg_trans2 pc^0 l9 pc^post l8 (and (and (and (and (and (and (and (and (and (and (and (and (and (and (= size17^post (+ 0 __const_100^0)) (= __const_100^0 __const_100^post)) (= __len21^0 __len21^post)) (= ret_my_malloc10^0 ret_my_malloc10^post)) (= ret_my_malloc14^0 ret_my_malloc14^post)) (= retval^0 retval^post)) (= size11^0 size11^post)) (= size15^0 size15^post)) (= size7^0 size7^post)) (= tmp^0 tmp^post)) (= tmp13^0 tmp13^post)) (= tmp22^0 tmp22^post)) (= tmp9^0 tmp9^post)) (= tmp___0^0 tmp___0^post)) (= tmp___1^0 tmp___1^post)))
    (cfg_trans2 pc^0 l10 pc^post l3 (and (and (and (and (and (and (and (and (and (and (and (and (and (and (= __const_100^0 __const_100^post) (= __len21^0 __len21^post)) (= ret_my_malloc10^0 ret_my_malloc10^post)) (= ret_my_malloc14^0 ret_my_malloc14^post)) (= retval^0 retval^post)) (= size11^0 size11^post)) (= size15^0 size15^post)) (= size17^0 size17^post)) (= size7^0 size7^post)) (= tmp^0 tmp^post)) (= tmp13^0 tmp13^post)) (= tmp22^0 tmp22^post)) (= tmp9^0 tmp9^post)) (= tmp___0^0 tmp___0^post)) (= tmp___1^0 tmp___1^post)))
    (cfg_trans2 pc^0 l11 pc^post l10 (and (and (and (and (and (and (and (and (and (and (and (and (and (and (= __const_100^0 __const_100^post) (= __len21^0 __len21^post)) (= ret_my_malloc10^0 ret_my_malloc10^post)) (= ret_my_malloc14^0 ret_my_malloc14^post)) (= retval^0 retval^post)) (= size11^0 size11^post)) (= size15^0 size15^post)) (= size17^0 size17^post)) (= size7^0 size7^post)) (= tmp^0 tmp^post)) (= tmp13^0 tmp13^post)) (= tmp22^0 tmp22^post)) (= tmp9^0 tmp9^post)) (= tmp___0^0 tmp___0^post)) (= tmp___1^0 tmp___1^post)))
    (cfg_trans2 pc^0 l12 pc^post l11 (and (and (and (and (and (and (and (and (and (and (and (and (and (and (= __const_100^0 __const_100^post) (= __len21^0 __len21^post)) (= ret_my_malloc10^0 ret_my_malloc10^post)) (= ret_my_malloc14^0 ret_my_malloc14^post)) (= retval^0 retval^post)) (= size11^0 size11^post)) (= size15^0 size15^post)) (= size17^0 size17^post)) (= size7^0 size7^post)) (= tmp^0 tmp^post)) (= tmp13^0 tmp13^post)) (= tmp22^0 tmp22^post)) (= tmp9^0 tmp9^post)) (= tmp___0^0 tmp___0^post)) (= tmp___1^0 tmp___1^post)))
    (cfg_trans2 pc^0 l12 pc^post l10 (and (and (and (and (and (and (and (and (and (and (and (and (and (and (= __const_100^0 __const_100^post) (= __len21^0 __len21^post)) (= ret_my_malloc10^0 ret_my_malloc10^post)) (= ret_my_malloc14^0 ret_my_malloc14^post)) (= retval^0 retval^post)) (= size11^0 size11^post)) (= size15^0 size15^post)) (= size17^0 size17^post)) (= size7^0 size7^post)) (= tmp^0 tmp^post)) (= tmp13^0 tmp13^post)) (= tmp22^0 tmp22^post)) (= tmp9^0 tmp9^post)) (= tmp___0^0 tmp___0^post)) (= tmp___1^0 tmp___1^post)))
    (cfg_trans2 pc^0 l12 pc^post l11 (and (and (and (and (and (and (and (and (and (and (and (and (and (and (= __const_100^0 __const_100^post) (= __len21^0 __len21^post)) (= ret_my_malloc10^0 ret_my_malloc10^post)) (= ret_my_malloc14^0 ret_my_malloc14^post)) (= retval^0 retval^post)) (= size11^0 size11^post)) (= size15^0 size15^post)) (= size17^0 size17^post)) (= size7^0 size7^post)) (= tmp^0 tmp^post)) (= tmp13^0 tmp13^post)) (= tmp22^0 tmp22^post)) (= tmp9^0 tmp9^post)) (= tmp___0^0 tmp___0^post)) (= tmp___1^0 tmp___1^post)))
    (cfg_trans2 pc^0 l13 pc^post l12 (and (and (and (and (and (and (and (and (and (and (and (and (and (and (= size15^post (+ 0 __const_100^0)) (= __const_100^0 __const_100^post)) (= __len21^0 __len21^post)) (= ret_my_malloc10^0 ret_my_malloc10^post)) (= ret_my_malloc14^0 ret_my_malloc14^post)) (= retval^0 retval^post)) (= size11^0 size11^post)) (= size17^0 size17^post)) (= size7^0 size7^post)) (= tmp^0 tmp^post)) (= tmp13^0 tmp13^post)) (= tmp22^0 tmp22^post)) (= tmp9^0 tmp9^post)) (= tmp___0^0 tmp___0^post)) (= tmp___1^0 tmp___1^post)))
    (cfg_trans2 pc^0 l14 pc^post l15 (and (and (and (and (and (and (and (and (and (and (and (and (and (and (= retval^post (+ 0 ret_my_malloc14^0)) (= __const_100^0 __const_100^post)) (= __len21^0 __len21^post)) (= ret_my_malloc10^0 ret_my_malloc10^post)) (= ret_my_malloc14^0 ret_my_malloc14^post)) (= size11^0 size11^post)) (= size15^0 size15^post)) (= size17^0 size17^post)) (= size7^0 size7^post)) (= tmp^0 tmp^post)) (= tmp13^0 tmp13^post)) (= tmp22^0 tmp22^post)) (= tmp9^0 tmp9^post)) (= tmp___0^0 tmp___0^post)) (= tmp___1^0 tmp___1^post)))
    (cfg_trans2 pc^0 l15 pc^post l5 (and (and (and (and (and (and (and (and (and (and (and (and (and (and (and (and (<= (+ 0 retval^0) 1) (<= 1 (+ 0 retval^0))) (= tmp___1^post tmp___1^post)) (= __const_100^0 __const_100^post)) (= __len21^0 __len21^post)) (= ret_my_malloc10^0 ret_my_malloc10^post)) (= ret_my_malloc14^0 ret_my_malloc14^post)) (= retval^0 retval^post)) (= size11^0 size11^post)) (= size15^0 size15^post)) (= size17^0 size17^post)) (= size7^0 size7^post)) (= tmp^0 tmp^post)) (= tmp13^0 tmp13^post)) (= tmp22^0 tmp22^post)) (= tmp9^0 tmp9^post)) (= tmp___0^0 tmp___0^post)))
    (cfg_trans2 pc^0 l15 pc^post l13 (and (and (and (and (and (and (and (and (and (and (and (and (and (and (and (<= 2 (+ 0 retval^0)) (= __const_100^0 __const_100^post)) (= __len21^0 __len21^post)) (= ret_my_malloc10^0 ret_my_malloc10^post)) (= ret_my_malloc14^0 ret_my_malloc14^post)) (= retval^0 retval^post)) (= size11^0 size11^post)) (= size15^0 size15^post)) (= size17^0 size17^post)) (= size7^0 size7^post)) (= tmp^0 tmp^post)) (= tmp13^0 tmp13^post)) (= tmp22^0 tmp22^post)) (= tmp9^0 tmp9^post)) (= tmp___0^0 tmp___0^post)) (= tmp___1^0 tmp___1^post)))
    (cfg_trans2 pc^0 l15 pc^post l13 (and (and (and (and (and (and (and (and (and (and (and (and (and (and (and (<= (+ 1 retval^0) 1) (= __const_100^0 __const_100^post)) (= __len21^0 __len21^post)) (= ret_my_malloc10^0 ret_my_malloc10^post)) (= ret_my_malloc14^0 ret_my_malloc14^post)) (= retval^0 retval^post)) (= size11^0 size11^post)) (= size15^0 size15^post)) (= size17^0 size17^post)) (= size7^0 size7^post)) (= tmp^0 tmp^post)) (= tmp13^0 tmp13^post)) (= tmp22^0 tmp22^post)) (= tmp9^0 tmp9^post)) (= tmp___0^0 tmp___0^post)) (= tmp___1^0 tmp___1^post)))
    (cfg_trans2 pc^0 l16 pc^post l14 (and (and (and (and (and (and (and (and (and (and (and (and (and (and (= ret_my_malloc14^post 0) (= __const_100^0 __const_100^post)) (= __len21^0 __len21^post)) (= ret_my_malloc10^0 ret_my_malloc10^post)) (= retval^0 retval^post)) (= size11^0 size11^post)) (= size15^0 size15^post)) (= size17^0 size17^post)) (= size7^0 size7^post)) (= tmp^0 tmp^post)) (= tmp13^0 tmp13^post)) (= tmp22^0 tmp22^post)) (= tmp9^0 tmp9^post)) (= tmp___0^0 tmp___0^post)) (= tmp___1^0 tmp___1^post)))
    (cfg_trans2 pc^0 l16 pc^post l14 (and (and (and (and (and (and (and (and (and (and (and (and (and (and (= ret_my_malloc14^post 1) (= __const_100^0 __const_100^post)) (= __len21^0 __len21^post)) (= ret_my_malloc10^0 ret_my_malloc10^post)) (= retval^0 retval^post)) (= size11^0 size11^post)) (= size15^0 size15^post)) (= size17^0 size17^post)) (= size7^0 size7^post)) (= tmp^0 tmp^post)) (= tmp13^0 tmp13^post)) (= tmp22^0 tmp22^post)) (= tmp9^0 tmp9^post)) (= tmp___0^0 tmp___0^post)) (= tmp___1^0 tmp___1^post)))
    (cfg_trans2 pc^0 l17 pc^post l9 (and (and (and (and (and (and (and (and (and (and (and (and (and (and (and (<= 2 (+ 0 retval^0)) (= __const_100^0 __const_100^post)) (= __len21^0 __len21^post)) (= ret_my_malloc10^0 ret_my_malloc10^post)) (= ret_my_malloc14^0 ret_my_malloc14^post)) (= retval^0 retval^post)) (= size11^0 size11^post)) (= size15^0 size15^post)) (= size17^0 size17^post)) (= size7^0 size7^post)) (= tmp^0 tmp^post)) (= tmp13^0 tmp13^post)) (= tmp22^0 tmp22^post)) (= tmp9^0 tmp9^post)) (= tmp___0^0 tmp___0^post)) (= tmp___1^0 tmp___1^post)))
    (cfg_trans2 pc^0 l17 pc^post l9 (and (and (and (and (and (and (and (and (and (and (and (and (and (and (and (<= (+ 1 retval^0) 1) (= __const_100^0 __const_100^post)) (= __len21^0 __len21^post)) (= ret_my_malloc10^0 ret_my_malloc10^post)) (= ret_my_malloc14^0 ret_my_malloc14^post)) (= retval^0 retval^post)) (= size11^0 size11^post)) (= size15^0 size15^post)) (= size17^0 size17^post)) (= size7^0 size7^post)) (= tmp^0 tmp^post)) (= tmp13^0 tmp13^post)) (= tmp22^0 tmp22^post)) (= tmp9^0 tmp9^post)) (= tmp___0^0 tmp___0^post)) (= tmp___1^0 tmp___1^post)))
    (cfg_trans2 pc^0 l17 pc^post l16 (and (and (and (and (and (and (and (and (and (and (and (and (and (and (and (and (<= (+ 0 retval^0) 1) (<= 1 (+ 0 retval^0))) (= size11^post (+ 0 __const_100^0))) (= tmp13^post tmp13^post)) (= __const_100^0 __const_100^post)) (= __len21^0 __len21^post)) (= ret_my_malloc10^0 ret_my_malloc10^post)) (= ret_my_malloc14^0 ret_my_malloc14^post)) (= retval^0 retval^post)) (= size15^0 size15^post)) (= size17^0 size17^post)) (= size7^0 size7^post)) (= tmp^0 tmp^post)) (= tmp22^0 tmp22^post)) (= tmp9^0 tmp9^post)) (= tmp___0^0 tmp___0^post)) (= tmp___1^0 tmp___1^post)))
    (cfg_trans2 pc^0 l1 pc^post l17 (and (and (and (and (and (and (and (and (and (and (and (and (and (and (= tmp^post (+ 0 ret_my_malloc10^0)) (= retval^post (+ 0 tmp^post))) (= __const_100^0 __const_100^post)) (= __len21^0 __len21^post)) (= ret_my_malloc10^0 ret_my_malloc10^post)) (= ret_my_malloc14^0 ret_my_malloc14^post)) (= size11^0 size11^post)) (= size15^0 size15^post)) (= size17^0 size17^post)) (= size7^0 size7^post)) (= tmp13^0 tmp13^post)) (= tmp22^0 tmp22^post)) (= tmp9^0 tmp9^post)) (= tmp___0^0 tmp___0^post)) (= tmp___1^0 tmp___1^post)))
    (cfg_trans2 pc^0 l18 pc^post l0 (and (and (and (and (and (and (and (and (and (and (and (and (and (and (= size7^post (+ 0 __const_100^0)) (= tmp9^post tmp9^post)) (= __const_100^0 __const_100^post)) (= __len21^0 __len21^post)) (= ret_my_malloc10^0 ret_my_malloc10^post)) (= ret_my_malloc14^0 ret_my_malloc14^post)) (= retval^0 retval^post)) (= size11^0 size11^post)) (= size15^0 size15^post)) (= size17^0 size17^post)) (= tmp^0 tmp^post)) (= tmp13^0 tmp13^post)) (= tmp22^0 tmp22^post)) (= tmp___0^0 tmp___0^post)) (= tmp___1^0 tmp___1^post)))
    (cfg_trans2 pc^0 l19 pc^post l18 (and (and (and (and (and (and (and (and (and (and (and (and (and (and (= __const_100^0 __const_100^post) (= __len21^0 __len21^post)) (= ret_my_malloc10^0 ret_my_malloc10^post)) (= ret_my_malloc14^0 ret_my_malloc14^post)) (= retval^0 retval^post)) (= size11^0 size11^post)) (= size15^0 size15^post)) (= size17^0 size17^post)) (= size7^0 size7^post)) (= tmp^0 tmp^post)) (= tmp13^0 tmp13^post)) (= tmp22^0 tmp22^post)) (= tmp9^0 tmp9^post)) (= tmp___0^0 tmp___0^post)) (= tmp___1^0 tmp___1^post)))
  )
)
